p cnf 117 422
2 -3 -4 0
-2 3 -4 0
2 3 4 0
-2 -3 4 0
-5 -1 0
-5 4 0
1 -4 5 0
-5 -6 0
5 -6 0
-6 1 -7 0
6 -1 -7 0
-6 -1 7 0
6 1 7 0
-7 -8 -9 0
7 8 -9 0
-7 8 9 0
7 -8 9 0
-11 -8 0
-11 10 0
8 -10 11 0
9 11 -12 0
-9 -11 -12 0
9 -11 12 0
-9 11 12 0
-14 4 0
-14 13 0
-4 -13 14 0
-15 -14 0
-15 5 0
14 -5 15 0
13 10 -17 0
-13 -10 -17 0
13 -10 17 0
-13 10 17 0
-18 4 0
-18 -2 0
-4 2 18 0
-19 -17 0
-19 -18 0
17 18 19 0
-20 16 0
-20 19 0
-16 -19 20 0
-21 15 0
-21 20 0
-15 -20 21 0
22 -12 0
22 21 0
12 -21 -22 0
-23 24 -25 0
23 -24 -25 0
-23 -24 25 0
23 24 25 0
-26 22 0
-26 -25 0
-22 25 26 0
-16 -4 -28 0
16 4 -28 0
-16 4 28 0
16 -4 28 0
29 -27 0
29 -28 0
27 28 -29 0
-6 -29 -30 0
6 29 -30 0
-6 29 30 0
6 -29 30 0
-31 23 0
-31 30 0
-23 -30 31 0
4 31 -32 0
-4 -31 -32 0
4 -31 32 0
-4 31 32 0
-33 -11 0
-33 -6 0
11 6 33 0
-24 18 -34 0
24 -18 -34 0
-24 -18 34 0
24 18 34 0
-35 29 0
-35 -34 0
-29 34 35 0
-36 -33 0
-36 35 0
33 -35 36 0
23 13 -37 0
-23 -13 -37 0
23 -13 37 0
-23 13 37 0
37 13 -38 0
-37 -13 -38 0
37 -13 38 0
-37 13 38 0
27 -6 -39 0
-27 6 -39 0
27 6 39 0
-27 -6 39 0
-40 10 0
-40 -39 0
-10 39 40 0
-40 19 -41 0
40 -19 -41 0
-40 -19 41 0
40 19 41 0
42 38 0
42 41 0
-38 -41 -42 0
-36 -42 -43 0
36 42 -43 0
-36 42 43 0
36 -42 43 0
44 2 -45 0
-44 -2 -45 0
44 -2 45 0
-44 2 45 0
-46 -43 0
-46 45 0
43 -45 46 0
-32 46 -47 0
32 -46 -47 0
-32 -46 47 0
32 46 47 0
8 9 -48 0
-8 -9 -48 0
8 -9 48 0
-8 9 48 0
50 -49 0
50 4 0
49 -4 -50 0
-51 -38 0
-51 29 0
38 -29 51 0
-52 -50 0
-52 -51 0
50 51 52 0
53 -48 0
53 -52 0
48 52 -53 0
54 24 0
54 4 0
-24 -4 -54 0
-55 5 0
-55 -15 0
-5 15 55 0
56 -54 0
56 55 0
54 -55 -56 0
-57 -53 0
-57 -56 0
53 56 57 0
47 -57 -58 0
-47 57 -58 0
47 57 58 0
-47 -57 58 0
59 7 0
59 17 0
-7 -17 -59 0
60 14 0
60 59 0
-14 -59 -60 0
-62 61 0
-62 38 0
-61 -38 62 0
-38 23 -63 0
38 -23 -63 0
-38 -23 63 0
38 23 63 0
-63 48 -64 0
63 -48 -64 0
-63 -48 64 0
63 48 64 0
65 62 0
65 64 0
-62 -64 -65 0
66 -2 0
66 -20 0
2 20 -66 0
10 -11 -67 0
-10 11 -67 0
10 11 67 0
-10 -11 67 0
-67 -49 -68 0
67 49 -68 0
-67 49 68 0
67 -49 68 0
69 -2 0
69 -68 0
2 68 -69 0
-66 69 -70 0
66 -69 -70 0
-66 -69 70 0
66 69 70 0
-35 3 -71 0
35 -3 -71 0
-35 -3 71 0
35 3 71 0
70 71 -72 0
-70 -71 -72 0
70 -71 72 0
-70 71 72 0
-73 65 0
-73 -72 0
-65 72 73 0
-60 73 -74 0
60 -73 -74 0
-60 -73 74 0
60 73 74 0
-58 -74 -75 0
58 74 -75 0
-58 74 75 0
58 -74 75 0
-76 -49 0
-76 20 0
49 -20 76 0
-77 -13 0
-77 50 0
13 -50 77 0
79 31 0
79 -78 0
-31 78 -79 0
-80 -79 0
-80 28 0
79 -28 80 0
-81 8 0
-81 -23 0
-8 23 81 0
-81 5 -82 0
81 -5 -82 0
-81 -5 82 0
81 5 82 0
80 -82 -83 0
-80 82 -83 0
80 82 83 0
-80 -82 83 0
-77 -83 -84 0
77 83 -84 0
-77 83 84 0
77 -83 84 0
85 -76 0
85 -84 0
76 84 -85 0
-86 -59 0
-86 31 0
59 -31 86 0
-87 -85 0
-87 86 0
85 -86 87 0
88 27 0
88 -17 0
-27 17 -88 0
-89 -38 0
-89 10 0
38 -10 89 0
-88 89 -90 0
88 -89 -90 0
-88 -89 90 0
88 89 90 0
-87 90 -91 0
87 -90 -91 0
-87 -90 91 0
87 90 91 0
-92 -49 0
-92 28 0
49 -28 92 0
92 14 -93 0
-92 -14 -93 0
92 -14 93 0
-92 14 93 0
94 91 0
94 93 0
-91 -93 -94 0
-95 -33 0
-95 92 0
33 -92 95 0
-19 68 -96 0
19 -68 -96 0
-19 -68 96 0
19 68 96 0
-95 -96 -97 0
95 96 -97 0
-95 96 97 0
95 -96 97 0
-98 31 0
-98 29 0
-31 -29 98 0
99 -24 0
99 11 0
24 -11 -99 0
100 98 0
100 99 0
-98 -99 -100 0
-101 -23 0
-101 -4 0
23 4 101 0
102 100 0
102 101 0
-100 -101 -102 0
-103 -63 0
-103 -7 0
63 7 103 0
-19 -23 -104 0
19 23 -104 0
-19 23 104 0
19 -23 104 0
103 104 -105 0
-103 -104 -105 0
103 -104 105 0
-103 104 105 0
-102 105 -106 0
102 -105 -106 0
-102 -105 106 0
102 105 106 0
-107 97 0
-107 106 0
-97 -106 107 0
108 -29 0
108 -19 0
29 19 -108 0
-50 -27 -109 0
50 27 -109 0
-50 27 109 0
50 -27 109 0
-39 -109 -110 0
39 109 -110 0
-39 109 110 0
39 -109 110 0
-111 108 0
-111 -110 0
-108 110 111 0
112 23 0
112 -17 0
-23 17 -112 0
-113 -111 0
-113 -112 0
111 112 113 0
-114 -107 0
-114 -113 0
107 113 114 0
115 94 0
115 114 0
-94 -114 -115 0
-75 -115 -116 0
75 115 -116 0
-75 115 116 0
75 -115 116 0
-26 116 -117 0
26 -116 -117 0
-26 -116 117 0
26 116 117 0
98 39 0
-54 108 26 -80 -83 0
-60 -109 13 79 -96 0
-106 108 57 -96 0
81 -113 0
10 -38 -51 25 0
-80 -53 -56 -113 0
36 -23 0
58 -55 111 70 -71 0
81 -16 -113 0
-18 -72 0
-60 -112 -20 -80 -97 14 0
96 -68 108 -32 0
-53 -52 -98 110 0
-42 -100 26 28 0
-62 -113 -24 30 -75 0
-111 -93 6 0
35 -27 0
94 -92 0
116 -47 -9 0
117 9 99 12 36 0
49 54 -78 85 -113 0
75 -61 -21 116 -14 -65 0
-30 35 43 -54 0
60 40 0
-11 -9 -88 15 -108 74 0
58 -111 19 35 24 66 0
-38 -105 29 -61 74 0
80 103 113 -31 0
-54 -94 0
116 19 87 -102 94 0
10 93 -108 20 0
-102 86 -79 0
-107 90 34 12 23 0
29 -41 109 107 3 0
21 -107 50 0
64 110 6 -71 109 0
100 -107 -47 0
-76 10 26 -7 51 -73 0
-60 57 -117 58 46 -71 0
94 -2 0
64 -68 81 -52 21 37 0
57 -93 30 0
45 93 -49 0
55 70 -31 56 53 0
27 -29 81 44 0
-12 16 111 -23 -113 -97 0
92 80 -74 -57 0
-9 35 2 -66 46 -90 0
-43 -39 15 51 -76 0
-24 112 113 0
52 -90 36 0
61 115 -66 0
-35 80 -53 57 -81 -117 0
69 22 31 14 0
-35 6 -11 -102 4 -106 0
115 -38 77 103 -86 44 0
-22 95 -83 13 0
65 -117 116 0
-32 -110 37 82 -23 0
46 -1 0
-53 -108 -77 62 0
29 113 0
-9 85 -115 -37 0
-19 -76 67 34 -102 0
-71 4 100 29 56 -51 0
65 -79 91 0
74 -65 -17 0
-105 -34 0
-49 -114 56 0
117 0
